\Problem name: 

Minimize
OBJROW:
Subject To
constr(0):  s0 + s1 + s2 = 8
constr(1):  s0 >= 1
constr(2):  s1 >= 1
constr(3):  s2 >= 1
constr(4):  c00 + c10 + c20 = 4
constr(5):  c01 + c11 + c21 = 4
constr(6):  c00 + c01 >= 2
constr(7):  c00 + c01 <= 3
constr(8):  c01 >= 1
constr(9):  c01 <= 5
constr(10):  c10 + c11 >= 2
constr(11):  c10 + c11 <= 3
constr(12):  c11 >= 1
constr(13):  c11 <= 5
constr(14):  c20 + c21 >= 2
constr(15):  c20 + c21 <= 3
constr(16):  c21 >= 1
constr(17):  c21 <= 5
Bounds
Integers
s0 c00 c01 s1 c10 c11 s2 c20 c21 
End
